p edge 30 38 15
v 1 5
v 3 2 21 29
v 2 12 14
v 1 16
v 4 15 24 25 26
v 2 11 17
v 3 8 18 19
v 2 9 30
v 1 27
v 2 10 22
v 3 4 6 13
v 1 23
v 1 20
v 3 3 7 28
v 1 1
e 1 8
e 1 19
e 3 18
e 3 21
e 3 30
e 4 6
e 4 11
e 4 18
e 5 8
e 5 9
e 5 16
e 5 26
e 6 9
e 6 14
e 6 22
e 7 25
e 8 10
e 8 19
e 9 24
e 10 24
e 11 12
e 11 17
e 13 14
e 13 18
e 13 24
e 13 27
e 15 21
e 15 25
e 17 28
e 17 29
e 18 21
e 18 23
e 21 26
e 22 23
e 22 28
e 22 29
e 24 28
e 25 26
